# Solution for model ComputeNE_MIP
# Objective value = 7
sigma_0_0 0
sigma_0_1 1
sigma_0_2 0
sigma_1_0 0
sigma_1_1 0
sigma_1_2 0
sigma_1_3 0
sigma_1_4 0
sigma_1_5 0
sigma_1_6 1
sigma_2_0 0
sigma_2_1 0
sigma_2_2 0
sigma_2_3 0
sigma_2_4 1
sigma_3_0 0
sigma_3_1 0
sigma_3_2 1
sigma_4_0 0
sigma_4_1 0
sigma_4_2 0
sigma_4_3 0
sigma_4_4 0
sigma_4_5 1
sigma_5_0 0
sigma_5_1 1
sigma_6_0 0
sigma_6_1 0
sigma_6_2 0
sigma_6_3 0
sigma_6_4 0
sigma_6_5 0
sigma_6_6 1
activ_0_0 0
activ_0_1 1
activ_0_2 0
activ_1_0 0
activ_1_1 0
activ_1_2 0
activ_1_3 0
activ_1_4 0
activ_1_5 0
activ_1_6 1
activ_2_0 0
activ_2_1 0
activ_2_2 0
activ_2_3 0
activ_2_4 1
activ_3_0 0
activ_3_1 0
activ_3_2 1
activ_4_0 0
activ_4_1 0
activ_4_2 0
activ_4_3 0
activ_4_4 0
activ_4_5 1
activ_5_0 0
activ_5_1 1
activ_6_0 0
activ_6_1 0
activ_6_2 0
activ_6_3 0
activ_6_4 0
activ_6_5 0
activ_6_6 1
v_0 -4.6377096857329242e+01
v_1 2.1078726491684724e+03
v_2 4.8278202374505014e+01
v_3 8.8442228124586586e+02
v_4 9.6155276682351564e+02
v_5 -7.5013681911614583e+01
v_6 3.0704093431247197e+03
ArtP_R0 0
ArtN_R0 0
ArtN_R1 0
ArtP_R2 0
ArtN_R2 0
ArtN_R3 0
ArtP_R4 0
ArtN_R4 0
ArtN_R5 0
ArtP_R6 0
ArtN_R6 0
ArtN_R7 0
ArtP_R8 0
ArtN_R8 0
ArtN_R9 0
ArtP_R10 0
ArtN_R10 0
ArtN_R11 0
ArtP_R12 0
ArtN_R12 0
ArtN_R13 0
ArtN_R14 0
ArtN_R15 0
ArtN_R16 0
ArtN_R17 0
ArtN_R18 0
ArtN_R19 0
ArtN_R20 0
ArtN_R21 0
ArtN_R22 0
ArtN_R23 0
ArtN_R24 0
ArtN_R25 0
ArtN_R26 0
ArtN_R27 0
ArtN_R28 0
ArtN_R29 0
ArtN_R30 0
ArtN_R31 0
ArtN_R32 0
ArtN_R33 0
ArtN_R34 0
ArtN_R35 0
ArtN_R36 0
ArtN_R37 0
ArtN_R38 0
ArtN_R39 0
ArtN_R40 0
ArtN_R41 0
ArtN_R42 0
ArtN_R43 0
ArtN_R44 0
ArtN_R45 0
ArtN_R46 0
ArtN_R47 0
ArtN_R48 0
ArtN_R49 0
ArtN_R50 0
ArtN_R51 0
ArtN_R52 0
ArtN_R53 0
ArtN_R54 0
ArtN_R55 0
ArtN_R56 0
ArtN_R57 0
ArtN_R58 0
ArtN_R59 0
ArtN_R60 0
ArtN_R61 0
ArtN_R62 0
ArtN_R63 0
ArtN_R64 0
ArtN_R65 0
ArtN_R66 0
ArtN_R67 0
ArtN_R68 0
ArtN_R69 0
ArtN_R70 0
ArtN_R71 0
ArtN_R72 0
ArtN_R73 0
ArtN_R74 0
ArtN_R75 0
ArtN_R76 0
ArtN_R77 0
ArtN_R78 0
ArtN_R79 0
